
Gurobi 11.0.1 (win64) logging started Thu Mar 14 09:08:20 2024

Set parameter LogFile to value "res/logfile/radiationm18-12-05log.txt"
Gurobi Optimizer version 11.0.1 build v11.0.1rc0 (win64 - Windows 11.0 (22621.2))

CPU model: AMD Ryzen Threadripper PRO 5975WX 32-Cores, instruction set [SSE2|AVX|AVX2]
Thread count: 32 physical cores, 64 logical processors, using up to 10 threads

Optimize a model with 53192 rows, 40623 columns and 121167 nonzeros
Model fingerprint: 0x0af171a1
Variable types: 14688 continuous, 25935 integer (16243 binary)
Coefficient statistics:
  Matrix range     [1e+00, 6e+02]
  Objective range  [1e+00, 1e+00]
  Bounds range     [1e+00, 6e+05]
  RHS range        [1e+00, 1e+01]
Presolve removed 49556 rows and 36725 columns
Presolve time: 0.14s
Presolved: 3636 rows, 3898 columns, 13564 nonzeros
Crushed 259 out of 1241 user cuts to presolved model
Variable types: 0 continuous, 3898 integer (2263 binary)
Found heuristic solution: objective 105624.00000
Found heuristic solution: objective 105298.00000

Root relaxation: objective 1.756135e+04, 2115 iterations, 0.03 seconds (0.05 work units)

    Nodes    |    Current Node    |     Objective Bounds      |     Work
 Expl Unexpl |  Obj  Depth IntInf | Incumbent    BestBd   Gap | It/Node Time

     0     0 17561.3537    0  518 105298.000 17561.3537  83.3%     -    0s
H    0     0                    17604.000000 17561.3537  0.24%     -    0s
     0     0 17563.1103    0  920 17604.0000 17563.1103  0.23%     -    0s
     0     0 17563.1177    0  845 17604.0000 17563.1177  0.23%     -    0s
     0     0 17563.1358    0  825 17604.0000 17563.1358  0.23%     -    0s
H    0     0                    17598.000000 17564.0000  0.19%     -    1s
H    0     0                    17594.000000 17564.0000  0.17%     -    1s
H    0     0                    17593.000000 17564.0000  0.16%     -    1s
     0     0 17564.8333    0  466 17593.0000 17564.8333  0.16%     -    1s
H    0     0                    17591.000000 17565.0000  0.15%     -    1s
H    0     0                    17590.000000 17565.0000  0.14%     -    1s
     0     0 17565.0000    0  661 17590.0000 17565.0000  0.14%     -    1s
     0     0 17565.0000    0  596 17590.0000 17565.0000  0.14%     -    1s
H    0     0                    17588.000000 17565.0000  0.13%     -    1s
H    0     0                    17587.000000 17565.0000  0.13%     -    1s
     0     0 17565.0000    0  965 17587.0000 17565.0000  0.13%     -    1s
     0     0 17565.0000    0  919 17587.0000 17565.0000  0.13%     -    2s
     0     0 17565.0000    0  906 17587.0000 17565.0000  0.13%     -    2s
H    0     0                    17583.000000 17565.0000  0.10%     -    2s
     0     0 17565.0000    0  879 17583.0000 17565.0000  0.10%     -    2s
H    0     0                    17582.000000 17565.0000  0.10%     -    2s
H    0     0                    17579.000000 17565.0000  0.08%     -    2s
     0     0 17565.0000    0  426 17579.0000 17565.0000  0.08%     -    3s
H    0     0                    17578.000000 17565.0000  0.07%     -    3s
H    0     0                    17577.000000 17565.0000  0.07%     -    3s
H    0     0                    17574.000000 17565.0000  0.05%     -    3s
     0     0 17565.0000    0  714 17574.0000 17565.0000  0.05%     -    3s
H    0     0                    17573.000000 17565.0000  0.05%     -    3s
     0     0 17565.0000    0  370 17573.0000 17565.0000  0.05%     -    3s
     0     0 17565.0000    0  686 17573.0000 17565.0000  0.05%     -    4s
     0     0 17565.0000    0  272 17573.0000 17565.0000  0.05%     -    4s
H    0     0                    17572.000000 17565.0000  0.04%     -    4s
     0     0 17565.0000    0  399 17572.0000 17565.0000  0.04%     -    4s
     0     0 17565.0000    0  231 17572.0000 17565.0000  0.04%     -    5s
     0     0 17565.0000    0  466 17572.0000 17565.0000  0.04%     -    5s
H    0     0                    17569.000000 17565.0000  0.02%     -    5s
     0     0 17565.0000    0  254 17569.0000 17565.0000  0.02%     -    5s
     0     0 17565.0000    0  254 17569.0000 17565.0000  0.02%     -    6s
     0     2 17565.0000    0  217 17569.0000 17565.0000  0.02%     -    6s
   847   727 17565.0000   45  369 17569.0000 17565.0000  0.02%   169   10s
  2795  1932 17566.0000  138  337 17569.0000 17565.0000  0.02%   105   15s
  2808  1940 17566.0000   69  471 17569.0000 17565.0000  0.02%   105   20s
  3039  2130 17565.1250   22  577 17569.0000 17565.0000  0.02%  87.2   25s
H 3089  2016                    17568.000000 17565.0000  0.02%  92.4   25s
H 3928  2253                    17567.000000 17565.0000  0.01%   126   29s
  4294  2160 infeasible   35      17567.0000 17565.0000  0.01%   138   32s
  4651  2224 17565.0000   17  603 17567.0000 17565.0000  0.01%   150   36s
  5627  2275 17566.0000   19  761 17567.0000 17565.0000  0.01%   192   45s
  6634  2711 17566.0000   18  559 17567.0000 17565.0000  0.01%   215   51s
  7522  2429     cutoff   19      17567.0000 17565.0000  0.01%   223   60s
  7643  2587 17566.0000   19  573 17567.0000 17565.1746  0.01%   225   65s

Cutting planes:
  User: 36
  Gomory: 108
  Cover: 535
  Implied bound: 286
  Projected implied bound: 32
  Clique: 7
  MIR: 2538
  Mixing: 4
  StrongCG: 649
  Flow cover: 925
  GUB cover: 12
  Inf proof: 26
  Zero half: 596
  RLT: 47
  Relax-and-lift: 88
  BQP: 5
  PSD: 3

Explored 8881 nodes (2380202 simplex iterations) in 65.81 seconds (84.68 work units)
Thread count was 10 (of 64 available processors)

Solution count 10: 17567 17568 17569 ... 17582

Optimal solution found (tolerance 1.00e-04)
Best objective 1.756700000000e+04, best bound 1.756600000000e+04, gap 0.0057%

User-callback calls 22052, time in user-callback 0.00 sec
